c 31_3_checker_6cl.cnf
c
c field = 31
c formula set type = 3_checker_6cl
c
p cnf 6 6
30 
90 
120 
-151 
-0 
-180 
31 
91 
121 
-150 
-1 
-181 
90 
120 
150 
-31 
-0 
-180 
91 
121 
151 
-30 
-1 
-181 
90 
120 
150 
-181 
-30 
-210 
91 
121 
151 
-180 
-31 
-211 
